%%% static parameters %%%
timespan = 1;
Clients_N = [4000];
Demand_W = [15];
Lt0 = [4];
Lt1 = [4];
SS_ = [0.85];
DS_D = [20];
K = [200];
MA = [500];
HC = [0.05];
%%% dynamic parameters %%%
lost_ratio_sales_ret_th = 0.0005239878513931501;
lost_ratio_sales_ret_w = 79;
lost_ratio_sales_dis_th = 0.00016526608625513274;
lost_ratio_sales_dis_w = 42;
lost_ratio_sales_fac_th = 0.0007704227423970444;
lost_ratio_sales_fac_w = 99;
stock_customer_MA_mean_relative_th = 0.5198272599527428;
stock_customer_MA_mean_relative_w = 32;
stock_distributor_MA_mean_relative_th = 0.34798384538800353;
stock_distributor_MA_mean_relative_w = 88;
stock_retailer_MA_mean_relative_th = 0.4910300572321691;
stock_retailer_MA_mean_relative_w = 95;
stock_factory_MA_mean_relative_th = 0.681187224520833;
stock_factory_MA_mean_relative_w = 34;
